GLPSOL: GLPK LP/MIP Solver, v4.65
Parameter(s) specified in the command line:
 --model solver_drone.mod --data solver_drone_data_40.dat --output solver_drone_solution_40_6.log
 --log solver_drone_cmd_output_40_6.log --tmlim 50
Reading model section from solver_drone.mod...
41 lines were read
Reading data section from solver_drone_data_40.dat...
117 lines were read
Generating f...
Generating package_deliverd_once...
Generating package_well_delivered...
Generating time_spent_flying...
Generating autonomy_not_exceeded...
Generating check_time_max...
Model has been successfully generated
GLPK Integer Optimizer, v4.65
16133 rows, 15997 columns, 48379 non-zeros
15997 integer variables, 15990 of which are binary
Preprocessing...
142 rows, 15997 columns, 32388 non-zeros
15997 integer variables, 15990 of which are binary
Scaling...
 A: min|aij| =  1.000e+00  max|aij| =  2.856e+03  ratio =  2.856e+03
GM: min|aij| =  4.785e-01  max|aij| =  2.090e+00  ratio =  4.367e+00
EQ: min|aij| =  2.290e-01  max|aij| =  1.000e+00  ratio =  4.367e+00
2N: min|aij| =  1.250e-01  max|aij| =  1.199e+00  ratio =  9.594e+00
Constructing initial basis...
Size of triangular part is 142
Solving LP relaxation...
GLPK Simplex Optimizer, v4.65
142 rows, 15997 columns, 32388 non-zeros
      0: obj =   0.000000000e+00 inf =   2.390e+03 (1)
    183: obj =   1.274666667e+04 inf =   1.197e-13 (0) 1
*   184: obj =   1.274666667e+04 inf =   1.197e-13 (0)
OPTIMAL LP SOLUTION FOUND
Integer optimization begins...
Long-step dual simplex will be used
+   184: mip =     not found yet >=              -inf        (1; 0)
+  3387: >>>>>   1.316000000e+04 >=   1.274700000e+04   3.1% (162; 0)
+  3805: >>>>>   1.299200000e+04 >=   1.274700000e+04   1.9% (108; 143)
+  3893: >>>>>   1.298400000e+04 >=   1.274700000e+04   1.8% (118; 147)
+  4446: >>>>>   1.297600000e+04 >=   1.274700000e+04   1.8% (134; 148)
+  4765: >>>>>   1.296000000e+04 >=   1.274700000e+04   1.6% (149; 151)
+  4918: >>>>>   1.295200000e+04 >=   1.274700000e+04   1.6% (148; 180)
+  6086: >>>>>   1.292000000e+04 >=   1.274700000e+04   1.3% (191; 234)
+  6242: >>>>>   1.286400000e+04 >=   1.274700000e+04   0.9% (197; 247)
+  6862: >>>>>   1.280000000e+04 >=   1.274700000e+04   0.4% (227; 276)
+ 10455: >>>>>   1.277600000e+04 >=   1.274700000e+04   0.2% (436; 357)
+ 13165: >>>>>   1.276800000e+04 >=   1.274700000e+04   0.2% (559; 490)
+ 21642: mip =   1.276800000e+04 >=   1.274700000e+04   0.2% (899; 651)
+ 31056: mip =   1.276800000e+04 >=   1.274700000e+04   0.2% (1304; 730)
+ 38654: mip =   1.276800000e+04 >=   1.274700000e+04   0.2% (1651; 824)
+ 45390: mip =   1.276800000e+04 >=   1.274700000e+04   0.2% (1861; 1042)
+ 53165: mip =   1.276800000e+04 >=   1.274700000e+04   0.2% (2199; 1150)
+ 60011: mip =   1.276800000e+04 >=   1.274700000e+04   0.2% (2535; 1259)
+ 63912: >>>>>   1.276000000e+04 >=   1.274700000e+04   0.1% (2768; 1310)
+ 72376: mip =   1.276000000e+04 >=   1.274700000e+04   0.1% (1795; 3659)
+ 78777: mip =   1.276000000e+04 >=   1.274700000e+04   0.1% (1893; 3827)
TIME LIMIT EXCEEDED; SEARCH TERMINATED
Time used:   50.1 secs
Memory used: 58.6 Mb (61491898 bytes)
The package 1 is delivered by the drone 5 to the house 1
The package 2 is delivered by the drone 2 to the house 1
The package 3 is delivered by the drone 1 to the house 2
The package 4 is delivered by the drone 5 to the house 2
The package 5 is delivered by the drone 6 to the house 4
The package 6 is delivered by the drone 6 to the house 4
The package 7 is delivered by the drone 1 to the house 4
The package 8 is delivered by the drone 2 to the house 7
The package 9 is delivered by the drone 3 to the house 7
The package 10 is delivered by the drone 4 to the house 8
The package 11 is delivered by the drone 1 to the house 8
The package 12 is delivered by the drone 2 to the house 8
The package 13 is delivered by the drone 6 to the house 9
The package 14 is delivered by the drone 6 to the house 9
The package 15 is delivered by the drone 5 to the house 10
The package 16 is delivered by the drone 4 to the house 10
The package 17 is delivered by the drone 1 to the house 10
The package 18 is delivered by the drone 1 to the house 12
The package 19 is delivered by the drone 4 to the house 12
The package 20 is delivered by the drone 5 to the house 12
The package 21 is delivered by the drone 3 to the house 13
The package 22 is delivered by the drone 2 to the house 13
The package 23 is delivered by the drone 6 to the house 13
The package 24 is delivered by the drone 6 to the house 15
The package 25 is delivered by the drone 4 to the house 16
The package 26 is delivered by the drone 6 to the house 16
The package 27 is delivered by the drone 2 to the house 17
The package 28 is delivered by the drone 6 to the house 18
The package 29 is delivered by the drone 1 to the house 19
The package 30 is delivered by the drone 4 to the house 19
The package 31 is delivered by the drone 1 to the house 19
The package 32 is delivered by the drone 4 to the house 20
The package 33 is delivered by the drone 5 to the house 21
The package 34 is delivered by the drone 4 to the house 22
The package 35 is delivered by the drone 6 to the house 23
The package 36 is delivered by the drone 6 to the house 23
The package 37 is delivered by the drone 3 to the house 23
The package 38 is delivered by the drone 5 to the house 24
The package 39 is delivered by the drone 5 to the house 24
The package 40 is delivered by the drone 6 to the house 24
The package 41 is delivered by the drone 2 to the house 27
The package 42 is delivered by the drone 5 to the house 27
The package 43 is delivered by the drone 6 to the house 28
The package 44 is delivered by the drone 3 to the house 28
The package 45 is delivered by the drone 3 to the house 28
The package 46 is delivered by the drone 6 to the house 29
The package 47 is delivered by the drone 6 to the house 29
The package 48 is delivered by the drone 6 to the house 29
The package 49 is delivered by the drone 4 to the house 30
The package 50 is delivered by the drone 1 to the house 30
The package 51 is delivered by the drone 4 to the house 32
The package 52 is delivered by the drone 3 to the house 32
The package 53 is delivered by the drone 5 to the house 32
The package 54 is delivered by the drone 2 to the house 33
The package 55 is delivered by the drone 4 to the house 33
The package 56 is delivered by the drone 2 to the house 33
The package 57 is delivered by the drone 3 to the house 34
The package 58 is delivered by the drone 2 to the house 34
The package 59 is delivered by the drone 1 to the house 35
The package 60 is delivered by the drone 3 to the house 35
The package 61 is delivered by the drone 1 to the house 37
The package 62 is delivered by the drone 3 to the house 37
The package 63 is delivered by the drone 2 to the house 38
The package 64 is delivered by the drone 4 to the house 38
The package 65 is delivered by the drone 3 to the house 38
Model has been successfully processed
Writing MIP solution to 'solver_drone_solution_40_6.log'...
